c Random 3-SAT n=8 m=34 seed=123
p cnf 8 34
-1 3 -8 0
-1 4 5 0
3 8 5 0
-7 8 1 0
-1 3 -4 0
-6 -1 4 0
8 -5 -6 0
-3 -6 1 0
-6 -5 4 0
-6 -1 2 0
-6 -2 -4 0
3 5 4 0
8 2 1 0
7 -6 -4 0
-2 -1 4 0
7 1 -3 0
6 -4 3 0
-7 1 -6 0
2 -7 -6 0
-3 6 8 0
-6 -5 1 0
-8 3 -4 0
4 -7 1 0
3 7 4 0
-1 7 -5 0
7 3 -8 0
4 -7 -2 0
-7 5 -3 0
6 -2 -8 0
-6 2 -5 0
1 -3 -5 0
7 8 6 0
-4 -6 8 0
-5 6 7 0
